
  32    4
  10   10   10   10

   0   0   0   0   0   3 2 4 5 
   3   0   1   1   1   2 10 3 
   9   1   0   4   2   3 9 7 6 
  10   2   0   4   2   3 9 7 6 
   1   0   3   7   1   2 9 6 
   2   3   5   0   9   1 8 
   6   5   5   0   1   1 8 
   2   0   4   5   5   2 13 11 
   7   0   6   2   5   2 13 11 
   9   0   3   5   2   1 11 
   8   4   6   3   0   4 25 16 14 12 
   2   3   6   0   9   3 21 19 15 
   8   0   5   7   5   2 18 14 
   3   7   3   0   3   3 23 22 20 
   9   3   4   0   4   1 17 
   3   3   0   3   9   5 31 30 23 22 21 
   6   2   3   4   0   2 30 18 
   7   5   5   3   0   4 31 29 23 22 
   3   0   4   3   4   4 30 29 23 22 
   8   5   2   4   0   3 31 30 21 
   7   0   4   4   2   4 29 28 26 24 
   8   2   5   0   4   3 28 26 24 
   5   3   0   8   4   2 27 26 
   7   4   2   0   4   1 27 
  10   6   0   3   2   1 26 
   1   6   3   6   0   1 32
   1   4   3   0   4   1 32
   8   2   0   3   6   1 32
   5   9   0   2   4   1 32
   4   0   6   4   5   1 32
   7   5   0   3   3   1 32
   0   0   0   0   0   0 
